c description: Random 3-CNF over 20 variables and 85 clauses
c generator: CNFgen (0.9.2)
c copyright: (C) 2012-2022 Massimo Lauria <massimo.lauria@uniroma1.it>
c url: https://massimolauria.net/cnfgen
c command line: cnfgen --output CNF_4.28/20_bit_85_374.cnf randkcnf 3 20 85
c
p cnf 20 85
-5 15 18 0
11 -13 -18 0
-9 -10 14 0
9 10 15 0
-6 -10 20 0
-1 9 -17 0
3 -14 15 0
4 -7 12 0
2 -9 -10 0
-10 -11 19 0
6 9 16 0
-2 5 18 0
-7 9 -14 0
1 -4 -17 0
-2 -3 -16 0
-2 8 18 0
-8 10 -20 0
-8 -10 -11 0
6 -8 11 0
5 16 -19 0
-1 2 -18 0
2 6 8 0
-1 -2 -12 0
12 -16 -18 0
3 -8 -9 0
9 -13 -19 0
-11 12 15 0
6 -10 -20 0
-8 14 18 0
-2 -8 -9 0
-1 12 15 0
6 9 -17 0
-5 -10 15 0
-2 5 9 0
-3 -14 15 0
3 -10 -19 0
3 -13 17 0
-12 -16 19 0
-5 -12 13 0
4 -5 16 0
11 12 13 0
13 17 18 0
-11 16 19 0
14 -16 20 0
-6 13 -14 0
10 14 20 0
-1 18 -20 0
4 -9 15 0
-5 9 -12 0
1 -15 -17 0
-4 -10 17 0
1 -5 12 0
-6 -19 20 0
-1 6 -16 0
-3 -10 -15 0
14 -16 18 0
-2 -3 12 0
7 9 19 0
2 12 -19 0
-1 15 -17 0
14 19 -20 0
-1 2 -20 0
-5 13 -20 0
6 10 -17 0
-13 17 20 0
8 -9 -20 0
-7 -12 -19 0
4 -17 18 0
-1 2 18 0
4 -6 -16 0
10 14 -15 0
8 17 -18 0
18 19 -20 0
-9 -14 17 0
-1 -9 20 0
-6 -7 10 0
4 11 -14 0
6 -17 -19 0
4 10 -18 0
13 -14 -19 0
4 -7 -19 0
11 18 -20 0
-4 6 -9 0
7 -13 20 0
1 -6 7 0
